20 59 133
1 7 5
1 10 4
1 12 3
1 14 1
1 17 1
2 8 1
2 11 2
2 13 3
2 15 5
2 20 4
3 5 1
3 6 1
3 8 1
3 11 1
3 15 3
3 18 5
3 19 1
4 9 1
4 14 1
5 6 4
5 7 5
5 9 1
5 10 5
5 13 4
5 19 2
6 16 2
6 17 4
6 19 2
6 20 4
7 8 3
7 15 3
7 16 2
7 17 3
8 10 1
8 14 3
8 15 5
8 17 2
8 18 1
8 19 3
9 10 1
9 11 5
9 12 4
9 13 5
9 20 3
10 15 3
10 19 4
10 20 1
11 19 4
11 20 5
12 15 2
12 16 2
12 19 3
13 14 1
13 17 2
14 17 4
15 16 5
16 19 5
17 18 3
17 20 5
